c description: Random 3-CNF over 19 variables and 81 clauses
c generator: CNFgen (0.9.2)
c copyright: (C) 2012-2022 Massimo Lauria <massimo.lauria@uniroma1.it>
c url: https://massimolauria.net/cnfgen
c command line: cnfgen --output CNF_4.28/19_bit_81_422.cnf randkcnf 3 19 81
c
p cnf 19 81
-4 8 10 0
-5 7 11 0
2 -8 -14 0
-6 -8 -13 0
4 -9 18 0
4 10 -18 0
6 -17 -18 0
-4 5 -14 0
9 16 17 0
2 11 17 0
-5 8 -10 0
-7 -14 -18 0
2 9 10 0
4 -14 18 0
6 -12 17 0
-5 12 -15 0
1 -4 14 0
-3 -5 -9 0
-2 -11 -16 0
-7 -9 -14 0
2 9 11 0
-2 5 14 0
5 11 -14 0
-3 -8 10 0
-3 -5 -13 0
-9 -13 19 0
-7 -8 -9 0
-11 12 17 0
2 13 19 0
-2 -5 -19 0
-1 8 17 0
2 -6 14 0
6 8 -15 0
2 -6 18 0
2 4 13 0
1 -2 18 0
8 -10 19 0
15 18 19 0
9 -17 19 0
10 -13 19 0
-8 -9 14 0
-2 -6 14 0
9 10 -15 0
-6 10 -11 0
5 11 -18 0
12 -15 19 0
-8 11 13 0
-4 -7 -8 0
6 9 18 0
-2 9 16 0
1 -12 16 0
-4 16 18 0
-7 -9 -13 0
-6 -9 14 0
8 -9 19 0
3 -15 17 0
-2 6 15 0
-5 15 -17 0
4 11 -12 0
-6 8 -14 0
3 -10 16 0
-2 10 11 0
-6 -10 -18 0
3 5 -13 0
-2 15 -17 0
-6 -8 10 0
7 9 13 0
-1 -2 -12 0
-3 -9 15 0
-4 13 -18 0
-4 -17 -19 0
-9 -14 19 0
-7 -12 15 0
-6 8 18 0
1 12 -13 0
-3 -6 19 0
14 -17 18 0
3 6 -14 0
2 -3 -6 0
3 6 -13 0
-5 12 -18 0
